NAME : XML100_1273_23
DIMENSION : 101
NB_CLUSTERS : 5
CLUSTERING_ALG : KMedoids
CLUSTERING_PARAMS : k(4)
CLUSTERS
1 0
2 8 10 11 16 25 28 31 39 41 48 49 53 56 57 60 62 63 67 69 72 73 74 78 81 84 92 94 96 98 100
3 3 4 6 7 9 12 14 17 18 19 24 27 29 33 34 36 37 43 46 51 61 66 68 70 76 77 79 82 85 86 88 91 93
4 1 2 5 15 21 23 26 32 40 42 47 52 58 59 64 65 80 83 89 90 95 97 99
5 13 20 22 30 35 38 44 45 50 54 55 71 75 87
EOF